281 5
10 10 10 10 10 

0 0 0 0 0 0 1 2 
0 0 0 0 0 0 2 3 12 
1 0 0 0 0 1 3 11 10 4 
7 0 0 0 0 8 1 5 
6 0 0 0 0 4 1 6 
10 0 0 0 0 7 1 7 
3 0 0 0 0 4 1 8 
1 0 0 0 0 8 1 9 
3 0 0 0 0 1 1 13 
9 0 0 0 0 4 1 13 
10 0 0 0 0 7 1 13 
7 0 0 0 0 6 1 13 
0 0 0 0 0 0 4 14 46 78 110 
0 0 0 0 0 0 3 15 43 44 
10 1 1 0 0 2 1 16 
3 7 3 0 0 5 2 42 17 
8 7 3 0 0 7 2 41 18 
3 8 5 0 0 9 1 19 
3 6 7 0 0 6 2 40 20 
5 3 6 0 0 2 3 39 38 21 
4 6 4 0 0 10 1 22 
5 5 5 0 0 4 1 23 
2 7 6 0 0 4 1 24 
4 10 7 0 0 5 1 25 
6 5 4 0 0 5 1 26 
2 5 6 0 0 7 2 37 27 
9 4 3 0 0 4 1 28 
10 4 4 0 0 3 1 29 
2 6 4 0 0 7 1 30 
3 3 8 0 0 4 1 31 
3 5 5 0 0 6 1 32 
6 5 7 0 0 2 1 33 
10 4 3 0 0 6 1 34 
10 3 3 0 0 1 1 35 
6 4 7 0 0 3 1 36 
8 6 4 0 0 6 1 45 
1 7 6 0 0 3 1 45 
3 6 3 0 0 7 1 45 
7 4 7 0 0 4 1 45 
3 3 6 0 0 4 1 45 
5 4 8 0 0 8 1 45 
3 2 3 0 0 4 1 45 
6 8 8 0 0 5 1 45 
2 2 4 0 0 7 1 45 
0 0 0 0 0 0 1 270 
0 0 0 0 0 0 2 47 50 
9 4 0 0 1 1 1 48 
2 3 0 0 7 5 1 49 
1 3 0 0 3 8 1 51 
9 3 0 0 5 5 1 51 
10 5 0 0 5 9 1 52 
9 7 0 0 6 7 2 56 53 
6 4 0 0 3 4 1 54 
2 6 0 0 8 5 1 55 
7 4 0 0 7 3 3 59 58 57 
10 5 0 0 3 4 1 57 
3 5 0 0 6 6 2 61 60 
1 6 0 0 4 7 1 60 
8 6 0 0 6 7 1 60 
5 5 0 0 2 3 3 65 63 62 
9 2 0 0 8 1 3 65 63 62 
6 10 0 0 6 4 1 64 
9 5 0 0 3 4 1 64 
10 3 0 0 2 6 1 66 
3 7 0 0 5 4 1 66 
2 4 0 0 5 6 1 67 
9 7 0 0 2 4 1 68 
1 6 0 0 10 7 2 71 69 
8 3 0 0 4 7 1 70 
8 4 0 0 8 7 1 72 
9 5 0 0 3 5 1 72 
8 3 0 0 6 6 1 73 
1 9 0 0 6 5 1 74 
7 2 0 0 4 1 1 75 
6 7 0 0 4 6 1 76 
5 7 0 0 8 3 1 77 
0 0 0 0 0 0 1 270 
0 0 0 0 0 0 2 79 84 
3 0 1 0 1 1 1 80 
8 0 6 0 6 6 1 81 
10 0 2 0 10 5 1 82 
3 0 7 0 5 5 1 83 
10 0 7 0 7 5 2 90 85 
2 0 6 0 4 5 1 85 
7 0 4 0 6 3 1 86 
9 0 6 0 7 8 1 87 
8 0 3 0 1 5 3 92 91 88 
7 0 6 0 5 4 2 94 89 
10 0 7 0 6 4 3 97 96 93 
1 0 5 0 5 2 3 97 96 93 
8 0 1 0 6 4 2 96 93 
5 0 2 0 7 4 2 96 93 
3 0 5 0 7 9 1 95 
3 0 6 0 6 5 1 95 
3 0 4 0 4 6 1 98 
9 0 7 0 1 2 1 98 
4 0 3 0 4 5 1 98 
7 0 6 0 7 5 1 99 
4 0 5 0 2 6 1 100 
3 0 8 0 5 4 2 104 101 
4 0 3 0 5 7 1 102 
3 0 4 0 7 4 1 103 
5 0 3 0 6 6 1 105 
6 0 7 0 4 5 1 105 
9 0 4 0 3 4 1 106 
1 0 9 0 5 6 1 107 
9 0 7 0 4 8 1 108 
8 0 6 0 4 7 1 109 
0 0 0 0 0 0 1 270 
0 0 0 0 0 0 4 111 117 119 120 
4 0 0 0 1 0 1 112 
3 0 0 0 4 0 1 113 
3 0 0 0 7 0 1 114 
10 0 0 0 5 0 1 115 
10 0 0 0 9 0 1 116 
5 0 0 0 5 0 1 118 
4 0 0 0 3 0 1 118 
8 0 0 0 4 0 1 121 
4 0 0 0 3 0 1 121 
5 0 0 0 9 0 1 121 
0 0 0 0 0 0 5 122 144 166 188 210 
0 0 0 0 0 0 2 123 129 
5 1 0 1 0 0 1 124 
6 7 0 8 0 0 1 125 
4 3 0 6 0 0 1 126 
8 5 0 3 0 0 2 131 127 
2 3 0 7 0 0 1 128 
4 7 0 5 0 0 2 142 130 
7 10 0 7 0 0 2 142 130 
7 8 0 4 0 0 1 132 
6 4 0 4 0 0 1 132 
1 5 0 3 0 0 2 139 133 
9 7 0 8 0 0 1 134 
10 6 0 7 0 0 2 141 135 
4 3 0 2 0 0 1 136 
7 6 0 8 0 0 1 137 
9 3 0 3 0 0 1 138 
1 3 0 5 0 0 1 140 
6 6 0 5 0 0 1 141 
6 7 0 5 0 0 1 143 
5 3 0 3 0 0 1 143 
4 3 0 6 0 0 1 143 
0 0 0 0 0 0 1 270 
0 0 0 0 0 0 1 145 
2 0 1 0 1 0 2 150 146 
1 0 4 0 5 0 2 154 147 
5 0 4 0 5 0 2 162 148 
10 0 6 0 5 0 1 149 
6 0 6 0 4 0 2 159 151 
5 0 7 0 4 0 3 162 159 153 
6 0 6 0 9 0 1 152 
10 0 5 0 5 0 1 153 
5 0 7 0 5 0 2 157 155 
3 0 8 0 6 0 2 162 156 
1 0 7 0 6 0 1 156 
5 0 5 0 3 0 1 158 
9 0 4 0 8 0 1 158 
3 0 4 0 3 0 1 160 
7 0 7 0 9 0 1 160 
9 0 3 0 6 0 1 161 
4 0 5 0 2 0 1 163 
9 0 4 0 3 0 1 163 
4 0 3 0 8 0 1 164 
6 0 4 0 3 0 1 165 
0 0 0 0 0 0 1 270 
0 0 0 0 0 0 1 167 
9 1 1 0 0 0 1 168 
3 10 3 0 0 0 2 172 169 
5 3 4 0 0 0 1 170 
4 3 7 0 0 0 1 171 
8 6 6 0 0 0 2 176 173 
4 3 5 0 0 0 2 176 173 
10 2 5 0 0 0 2 179 174 
5 3 9 0 0 0 1 175 
5 5 6 0 0 0 1 177 
9 5 2 0 0 0 2 184 179 
10 4 4 0 0 0 1 178 
2 9 2 0 0 0 3 184 183 180 
8 5 2 0 0 0 2 183 180 
2 7 7 0 0 0 1 181 
2 4 5 0 0 0 1 182 
6 3 7 0 0 0 1 185 
4 9 4 0 0 0 1 185 
5 8 5 0 0 0 1 185 
7 2 9 0 0 0 1 186 
2 8 7 0 0 0 1 187 
0 0 0 0 0 0 1 270 
0 0 0 0 0 0 1 189 
1 0 1 0 0 2 2 200 190 
9 0 8 0 0 2 1 191 
3 0 9 0 0 7 2 199 192 
2 0 4 0 0 10 1 193 
5 0 3 0 0 8 2 202 194 
2 0 4 0 0 3 1 195 
1 0 5 0 0 1 1 196 
7 0 9 0 0 5 2 208 197 
7 0 6 0 0 3 1 198 
5 0 4 0 0 2 2 207 201 
9 0 4 0 0 4 2 204 202 
6 0 6 0 0 4 2 207 203 
10 0 4 0 0 6 1 203 
10 0 4 0 0 5 2 208 205 
3 0 5 0 0 7 1 204 
8 0 6 0 0 6 1 205 
4 0 5 0 0 5 1 206 
5 0 4 0 0 8 1 209 
7 0 4 0 0 8 1 209 
6 0 5 0 0 4 1 209 
0 0 0 0 0 0 1 270 
0 0 0 0 0 0 1 211 
2 0 0 2 0 0 2 213 212 
10 0 0 5 0 0 1 214 
3 0 0 6 0 0 1 214 
2 0 0 10 0 0 2 217 215 
8 0 0 3 0 0 2 220 216 
2 0 0 2 0 0 1 218 
3 0 0 6 0 0 1 218 
4 0 0 6 0 0 1 219 
6 0 0 4 0 0 1 221 
9 0 0 6 0 0 1 221 
0 0 0 0 0 0 4 222 234 246 258 
0 0 0 0 0 0 3 223 229 231 
10 0 0 0 0 1 1 224 
3 0 0 0 0 4 2 227 225 
5 0 0 0 0 3 1 226 
1 0 0 0 0 5 1 228 
3 0 0 0 0 8 1 228 
2 0 0 0 0 4 1 230 
5 0 0 0 0 7 1 230 
1 0 0 0 0 7 1 232 
8 0 0 0 0 5 1 232 
6 0 0 0 0 6 1 233 
0 0 0 0 0 0 1 270 
0 0 0 0 0 0 2 235 239 
10 0 0 4 0 0 2 238 236 
2 0 0 4 0 0 1 237 
1 0 0 4 0 0 1 240 
4 0 0 4 0 0 1 240 
7 0 0 5 0 0 1 240 
8 0 0 5 0 0 2 242 241 
2 0 0 5 0 0 1 243 
7 0 0 10 0 0 1 243 
10 0 0 6 0 0 1 244 
4 0 0 3 0 0 1 245 
0 0 0 0 0 0 1 270 
0 0 0 0 0 0 3 247 255 256 
3 0 0 1 0 0 1 248 
4 0 0 3 0 0 2 254 249 
3 0 0 5 0 0 1 250 
2 0 0 6 0 0 1 251 
1 0 0 9 0 0 1 252 
3 0 0 5 0 0 1 253 
8 0 0 6 0 0 1 257 
10 0 0 6 0 0 1 257 
9 0 0 4 0 0 1 257 
1 0 0 5 0 0 1 257 
0 0 0 0 0 0 1 270 
0 0 0 0 0 0 2 259 265 
5 0 0 1 0 0 1 260 
6 0 0 3 0 0 2 268 261 
4 0 0 7 0 0 1 262 
8 0 0 10 0 0 2 267 263 
6 0 0 5 0 0 1 264 
8 0 0 7 0 0 1 266 
3 0 0 2 0 0 1 268 
7 0 0 4 0 0 1 269 
6 0 0 4 0 0 1 269 
6 0 0 7 0 0 1 269 
0 0 0 0 0 0 1 270 
0 0 0 0 0 0 1 271 
9 0 0 0 2 0 2 277 272 
5 0 0 0 2 0 1 273 
2 0 0 0 3 0 1 274 
5 0 0 0 4 0 3 280 279 275 
10 0 0 0 10 0 1 276 
5 0 0 0 5 0 1 278 
2 0 0 0 6 0 1 278 
5 0 0 0 4 0 1 281 
2 0 0 0 5 0 1 281 
6 0 0 0 9 0 1 281 
0 0 0 0 0 0 0 
